NAME : p43Preorder.352.tour
COMMENT : Length = 352
COMMENT : Found by LKH [Keld Helsgaun] Sun Apr 19 19:25:45 2020
TYPE : TOUR
DIMENSION : 43
TOUR_SECTION
1
5
43
42
41
39
40
22
23
24
25
26
27
16
20
19
21
18
17
13
15
14
35
34
33
32
11
12
9
10
8
6
7
31
30
29
28
4
2
3
37
38
36
-1
EOF
